p cnf 119 415
-3 -1 0
-3 2 0
1 -2 3 0
6 4 0
6 5 0
-4 -5 -6 0
7 -8 -9 0
-7 8 -9 0
7 8 9 0
-7 -8 9 0
-6 -9 -10 0
6 9 -10 0
-6 9 10 0
6 -9 10 0
10 5 -11 0
-10 -5 -11 0
10 -5 11 0
-10 5 11 0
12 -13 -14 0
-12 13 -14 0
12 13 14 0
-12 -13 14 0
-15 11 0
-15 -14 0
-11 14 15 0
3 -15 -16 0
-3 15 -16 0
3 15 16 0
-3 -15 16 0
18 5 0
18 17 0
-5 -17 -18 0
-19 -18 0
-19 -17 0
18 17 19 0
21 -19 0
21 20 0
19 -20 -21 0
5 -12 -22 0
-5 12 -22 0
5 12 22 0
-5 -12 22 0
23 -22 0
23 -5 0
22 5 -23 0
24 21 0
24 23 0
-21 -23 -24 0
-25 17 -26 0
25 -17 -26 0
-25 -17 26 0
25 17 26 0
27 -8 0
27 -22 0
8 22 -27 0
28 26 0
28 27 0
-26 -27 -28 0
29 24 0
29 28 0
-24 -28 -29 0
-31 4 0
-31 -5 0
-4 5 31 0
32 30 0
32 -31 0
-30 31 -32 0
-33 12 0
-33 17 0
-12 -17 33 0
-34 -17 0
-34 -33 0
17 33 34 0
35 -32 0
35 -34 0
32 34 -35 0
36 -1 0
36 -6 0
1 6 -36 0
38 27 0
38 37 0
-27 -37 -38 0
-40 -25 0
-40 39 0
25 -39 40 0
41 -40 0
41 -39 0
40 39 -41 0
-42 20 0
-42 -10 0
-20 10 42 0
-42 -22 -43 0
42 22 -43 0
-42 22 43 0
42 -22 43 0
44 -10 0
44 -43 0
10 43 -44 0
-45 41 0
-45 -44 0
-41 44 45 0
-46 38 0
-46 45 0
-38 -45 46 0
-47 -36 0
-47 -46 0
36 46 47 0
-13 2 -48 0
13 -2 -48 0
-13 -2 48 0
13 2 48 0
49 -9 0
49 -48 0
9 48 -49 0
50 49 0
50 21 0
-49 -21 -50 0
-42 -48 -51 0
42 48 -51 0
-42 48 51 0
42 -48 51 0
-52 50 0
-52 -51 0
-50 51 52 0
-4 22 -53 0
4 -22 -53 0
-4 -22 53 0
4 22 53 0
-54 40 0
-54 -39 0
-40 39 54 0
55 54 0
55 7 0
-54 -7 -55 0
53 55 -56 0
-53 -55 -56 0
53 -55 56 0
-53 55 56 0
57 -51 0
57 -11 0
51 11 -57 0
58 -19 0
58 -57 0
19 57 -58 0
56 -58 -59 0
-56 58 -59 0
56 58 59 0
-56 -58 59 0
-60 1 0
-60 26 0
-1 -26 60 0
61 26 0
61 -60 0
-26 60 -61 0
62 -61 0
62 23 0
61 -23 -62 0
-63 -6 0
-63 62 0
6 -62 63 0
-64 -59 0
-64 63 0
59 -63 64 0
-65 -52 0
-65 -64 0
52 64 65 0
66 -48 0
66 51 0
48 -51 -66 0
-67 25 0
-67 -66 0
-25 66 67 0
68 17 0
68 15 0
-17 -15 -68 0
-69 68 0
-69 -3 0
-68 3 69 0
-70 -9 0
-70 9 0
70 -21 -71 0
-70 21 -71 0
70 21 71 0
-70 -21 71 0
-69 71 -72 0
69 -71 -72 0
-69 -71 72 0
69 71 72 0
73 13 0
73 -2 0
-13 2 -73 0
-74 73 0
-74 68 0
-73 -68 74 0
72 -74 -75 0
-72 74 -75 0
72 74 75 0
-72 -74 75 0
-76 -67 0
-76 75 0
67 -75 76 0
-77 65 0
-77 -76 0
-65 76 77 0
-78 -47 0
-78 77 0
47 -77 78 0
-79 -35 0
-79 -78 0
35 78 79 0
80 -31 0
80 -21 0
31 21 -80 0
-26 -21 -81 0
26 21 -81 0
-26 21 81 0
26 -21 81 0
-82 20 0
-82 -4 0
-20 4 82 0
83 10 0
83 -82 0
-10 82 -83 0
-84 81 0
-84 -83 0
-81 83 84 0
-85 80 0
-85 -84 0
-80 84 85 0
-86 -79 0
-86 -85 0
79 85 86 0
-50 -19 -87 0
50 19 -87 0
-50 19 87 0
50 -19 87 0
-11 20 -88 0
11 -20 -88 0
-11 -20 88 0
11 20 88 0
89 87 0
89 88 0
-87 -88 -89 0
-90 -89 0
-90 6 0
89 -6 90 0
-91 2 0
-91 90 0
-2 -90 91 0
92 -54 0
92 33 0
54 -33 -92 0
-91 92 -93 0
91 -92 -93 0
-91 -92 93 0
91 92 93 0
-94 -10 0
-94 -8 0
10 8 94 0
94 -48 -95 0
-94 48 -95 0
94 48 95 0
-94 -48 95 0
5 1 -96 0
-5 -1 -96 0
5 -1 96 0
-5 1 96 0
-26 -48 -97 0
26 48 -97 0
-26 48 97 0
26 -48 97 0
98 96 0
98 -97 0
-96 97 -98 0
-99 95 0
-99 98 0
-95 -98 99 0
-100 -13 0
-100 -62 0
13 62 100 0
-62 100 -101 0
62 -100 -101 0
-62 -100 101 0
62 100 101 0
102 -101 0
102 5 0
101 -5 -102 0
103 -99 0
103 102 0
99 -102 -103 0
-104 -39 0
-104 22 0
39 -22 104 0
105 -21 0
105 -12 0
21 12 -105 0
106 104 0
106 105 0
-104 -105 -106 0
107 103 0
107 106 0
-103 -106 -107 0
-108 -93 0
-108 -107 0
93 107 108 0
-109 86 0
-109 108 0
-86 -108 109 0
-29 -109 -110 0
29 109 -110 0
-29 109 110 0
29 -109 110 0
16 -110 -111 0
-16 110 -111 0
16 110 111 0
-16 -110 111 0
-12 -5 -112 0
12 5 -112 0
-12 5 112 0
12 -5 112 0
-39 -87 -113 0
39 87 -113 0
-39 87 113 0
39 -87 113 0
-114 -112 0
-114 113 0
112 -113 114 0
115 11 0
115 20 0
-11 -20 -115 0
-116 51 0
-116 9 0
-51 -9 116 0
-115 116 -117 0
115 -116 -117 0
-115 -116 117 0
115 116 117 0
-114 -117 -118 0
114 117 -118 0
-114 117 118 0
114 -117 118 0
111 -118 -119 0
-111 118 -119 0
111 118 119 0
-111 -118 119 0
-21 19 -83 0
8 87 -95 0
56 -23 -71 0
-40 -62 103 -18 -105 0
-90 -34 -7 107 42 -27 0
-66 2 0
-22 54 -86 31 0
102 69 -57 0
81 -27 72 -18 0
8 81 0
108 13 -98 0
-105 9 81 -39 -107 0
82 -109 17 -89 117 56 0
54 70 -23 -43 0
-20 -80 -10 118 0
119 -72 0
23 -111 -33 0
-72 -43 -53 30 0
114 -87 69 81 0
107 99 -48 -10 -100 0
-33 -13 104 -111 -41 0
84 -44 40 -37 0
73 9 -79 0
-90 -110 -105 66 0
89 67 -30 0
95 -58 0
-27 99 91 -88 103 0
13 -43 -23 -46 0
62 25 31 7 11 28 0
-1 -77 87 -26 0
22 76 -72 53 0
-61 -100 -63 0
82 -94 -30 98 52 0
-30 118 -84 0
78 66 -81 0
66 -49 29 0
75 39 -5 115 -77 -45 0
-59 -88 95 -67 31 0
-39 -42 0
18 -90 0
23 4 0
11 -28 89 65 -14 0
114 24 7 -46 -39 0
-60 41 0
-36 -101 0
103 22 0
67 107 13 76 0
101 66 84 -114 31 7 0
105 -76 0
-80 -47 44 108 49 0
-111 -91 -72 0
-43 -76 48 106 56 59 0
72 -43 0
-68 -62 0
-83 19 24 0
51 -12 0
62 34 116 -40 0
-101 20 -83 44 0
40 94 -63 0
71 30 104 98 -75 0
103 25 -8 0
-67 -104 77 90 -75 0
101 -100 -49 -108 0
66 119 -14 79 -90 47 0
-99 114 -12 87 0
81 80 38 0
1 -92 -94 0
43 -29 15 -61 81 0
39 110 0
119 0
